language ESSENCE' 1.0
letting AssignmentMatrix be [[0, 0, 0, 0, 0, 0, 0, 0, 0, 0, 0, 1, 1, 1, 1, 1, 1, 1, 1], 
[0, 0, 1, 1, 1, 1, 1, 1, 0, 0, 0, 0, 0, 0, 0, 0, 0, 0, 0], 
[0, 0, 0, 0, 0, 0, 0, 0, 0, 0, 0, 0, 0, 0, 0, 0, 0, 0, 0], 
[0, 0, 0, 0, 0, 0, 0, 0, 1, 1, 1, 0, 0, 0, 0, 0, 0, 0, 0], 
[0, 0, 0, 0, 0, 0, 0, 0, 0, 0, 0, 0, 0, 0, 0, 0, 0, 1, 1]]
letting CPU be [1, 1, 2, 2, 2, 2, 2, 2, 4, 4, 4, 4, 4, 4, 4, 4, 4, 8, 8]
letting Memory be [1700, 1700, 3750, 3750, 3750, 3750, 3750, 3750, 7500, 7500, 7500, 7500, 7500, 7500, 7500, 7500, 7500, 15000, 15000]
letting Price be [0, 0, 116, 116, 116, 116, 116, 116, 210, 210, 210, 210, 210, 210, 210, 210, 210, 420, 420]
letting Storage be [1000, 1000, 2000, 2000, 2000, 2000, 2000, 2000, 2000, 2000, 2000, 2000, 2000, 2000, 2000, 2000, 2000, 2000, 2000]
letting VMType be [1, 1, 433, 433, 433, 433, 433, 433, 341, 341, 341, 341, 341, 341, 341, 341, 341, 278, 278]
